(set-logic QF_S)
(declare-fun var0 () String)
(assert (str.in.re var0 (re.++ (re.union (re.* (str.to.re "0")) (re.union (str.to.re "11") (str.to.re "2"))) (re.++ (re.* (re.* (str.to.re "33"))) (re.++ (re.* (re.* (str.to.re "4"))) (re.++ (re.* (re.* (str.to.re "555"))) (re.++ (re.* (re.* (str.to.re "666"))) (re.++ (re.union (re.+ (str.to.re "7")) (re.* (str.to.re "888"))) (re.++ (re.* (re.+ (str.to.re "99"))) (re.++ (re.union (re.+ (str.to.re "aa")) (re.* (str.to.re "b"))) (re.++ (re.+ (re.* (str.to.re "c"))) (re.union (re.union (str.to.re "dd") (str.to.re "ee")) (re.+ (str.to.re "f"))))))))))))))
(assert (<= 326 (str.len var0)))
(check-sat)